15 2 
1770	1770	
453	32	32	
964	402	407	
327	78	80	
228	831	860	
940	742	802	
674	95	97	
730	163	171	
636	603	628	
343	966	1000	
68	946	1027	
841	699	715	
617	234	248	
14	981	1040	
961	165	165	
470	143	144	
